c defined variables: 33 34 35 36 37 38 39 40 41 42 43 44 45 46 47 48 49 50 51 52 53 54 55 56 57 58 59 60 61 62 63 64 65 66 67 68 69 70 71 72 73 74 75 76 77 78 79 80 81 82 83 84 85 86 87 88 89 90 91 92 93 94 95 96 97 98 99 100 101 102 103 104 105 106 107 108 109 110 111 112 113 114 115 116 117 118 119 120 121 122 123 124 125 126 127 128 129 130 131 132 133 134 135 136 137 138 139 140 141 142 143 144 145 146 147 148 149 150 151 152 153 154 155 156 157 158 159 160 161 162 163 164 165 166 167 211 214 215 216 217 218 219 220 221 222 223 224 225 226 227 228 229 230 231 232 233 234 235 236 237 238 239 240 241 242 243 244 245 246 247 248 249 250 251 252 253 254 255 256 257 258 259 260 261 262 263 264 265 266 267 268 269 270 271 272 273 274 275 276 277 278 279 280 281 282 283 284 286 287 288 289 290 291 292 293 294 295 296 297 298 299 300 301 302 303 304 305 306 307 308 309 310 311 312 313 314 315 316 317 318 319 320 321 
p cnf 1394 2134
a 1 2 3 4 5 6 7 8 9 10 11 12 13 14 15 16 17 18 19 20 21 22 23 24 25 26 27 28 29 30 31 32 174 175 176 177 178 179 180 181 182 183 184 185 186 187 188 189 190 191 192 193 194 195 196 197 198 199 200 201 202 203 204 205 206 207 208 0
e 33 34 35 36 37 38 39 40 41 42 43 44 45 46 47 48 49 50 51 52 53 54 55 56 57 58 59 60 61 62 63 64 65 66 67 68 69 70 71 72 73 74 75 76 77 78 79 80 81 82 83 84 85 86 87 88 89 90 91 92 93 94 95 96 97 98 99 100 101 102 103 104 105 106 107 108 109 110 111 112 113 114 115 116 117 118 119 120 121 122 123 124 125 126 127 128 129 130 131 132 133 134 135 136 137 138 139 140 141 142 143 144 145 146 147 148 149 150 151 152 153 154 155 156 157 158 159 160 161 162 163 164 165 166 167 211 214 215 216 217 218 219 220 221 222 223 224 225 226 227 228 229 230 231 232 233 234 235 236 237 238 239 240 241 242 243 244 245 246 247 248 249 250 251 252 253 254 255 256 257 258 259 260 261 262 263 264 265 266 267 268 269 270 271 272 273 274 275 276 277 278 279 280 281 282 283 284 286 287 288 289 290 291 292 293 294 295 296 297 298 299 300 301 302 303 304 305 306 307 308 309 310 311 312 313 314 315 316 317 318 319 320 321 1107 1108 1109 1110 1111 1112 1113 1114 1115 1116 1117 1118 1119 1120 1121 1122 1123 1124 1125 1126 1127 1128 1129 1130 1131 1132 1133 1134 1135 1136 1137 1138 1139 1140 1141 1142 1143 1144 1145 1146 1147 1148 1149 1150 1151 1152 1153 1154 1155 1156 1157 1158 1159 1160 1161 1162 1163 1164 1165 1166 1167 1168 1169 1170 1171 1172 1173 1174 1175 1176 1177 1178 1179 1180 1181 1182 1183 1184 1185 1186 1187 1188 1189 1190 1191 1192 1193 1194 1195 1196 1197 1198 1199 1200 1201 1202 1203 1204 1205 1206 1207 1208 1209 1210 1211 1212 1213 1214 1215 1216 1217 1218 1219 1220 1221 1222 1223 1224 1225 1226 1227 1228 1229 1230 1231 1232 1233 1234 1235 1236 1237 1238 1239 1240 1241 1242 1243 1244 1245 1246 1247 1248 1249 1250 1251 1252 1253 1254 1255 1256 1257 1258 1259 1260 1261 1262 1263 1264 1265 1266 1267 1268 1269 1270 1271 1272 1273 1274 1275 1276 1277 1278 1279 1280 1281 1282 1283 1284 1285 1286 1287 1288 1289 1290 1291 1292 1293 1294 1295 1296 1297 1298 1299 1300 1301 1302 1303 1304 1305 1306 1307 1308 1309 1310 1311 1312 1313 1314 1315 1316 1317 1318 1319 1320 1321 1322 1323 1324 1325 1326 1327 1328 1329 1330 1331 1332 1333 1334 1335 1336 1337 1338 1339 1340 1341 1342 1343 1344 1345 1346 1347 1348 1349 1350 1351 1352 1353 1354 1355 1356 1357 1358 1359 1360 1361 1362 1363 1364 1365 1366 1367 1368 1369 1370 1371 1372 1373 1374 1375 1376 1377 1378 1379 1380 1381 1382 1383 1384 1385 1386 1387 1388 1389 1390 1391 1392 1393 1394 0
d 171 174 175 176 177 178 179 180 181 0
d 170 182 183 184 185 186 187 188 189 0
d 169 190 191 192 193 194 195 196 197 0
d 173 198 199 200 201 202 203 204 205 206 207 208 0
d 172 198 199 200 201 202 203 204 205 206 207 208 0
d 168 190 191 192 193 194 195 196 197 182 183 184 185 186 187 188 189 174 175 176 177 178 179 180 181 198 199 200 201 202 203 204 205 206 207 208 0
d 209 1 2 3 4 5 6 7 8 9 10 11 12 13 14 15 16 17 18 19 20 21 22 23 24 25 26 27 28 29 30 31 32 174 175 176 177 178 179 180 181 182 183 184 185 186 187 188 189 190 191 192 193 194 195 196 197 198 199 200 201 202 203 204 205 206 207 208 0
d 210 1 2 3 4 5 6 7 8 9 10 11 12 13 14 15 16 17 18 19 20 21 22 23 24 25 26 27 28 29 30 31 32 174 175 176 177 178 179 180 181 182 183 184 185 186 187 188 189 190 191 192 193 194 195 196 197 198 199 200 201 202 203 204 205 206 207 208 0
d 212 1 2 3 4 5 6 7 8 9 10 11 12 13 14 15 16 17 18 19 20 21 22 23 24 25 26 27 28 29 30 31 32 174 175 176 177 178 179 180 181 182 183 184 185 186 187 188 189 190 191 192 193 194 195 196 197 198 199 200 201 202 203 204 205 206 207 208 0
d 213 1 2 3 4 5 6 7 8 9 10 11 12 13 14 15 16 17 18 19 20 21 22 23 24 25 26 27 28 29 30 31 32 174 175 176 177 178 179 180 181 182 183 184 185 186 187 188 189 190 191 192 193 194 195 196 197 198 199 200 201 202 203 204 205 206 207 208 0
d 285 1 2 3 4 5 6 7 8 9 10 11 12 13 14 15 16 17 18 19 20 21 22 23 24 25 26 27 28 29 30 31 32 174 175 176 177 178 179 180 181 182 183 184 185 186 187 188 189 190 191 192 193 194 195 196 197 198 199 200 201 202 203 204 205 206 207 208 0
1107 -33 0
-1107 33 0
1108 -34 0
-1108 34 0
-1109 -35 0
1109 35 0
1110 -36 0
-1110 36 0
1111 -37 0
-1111 37 0
-1112 -38 0
1112 38 0
1113 -39 0
-1113 39 0
1114 -40 0
-1114 40 0
-1115 -41 0
1115 41 0
-12 -42 0
12 42 0
-1116 -43 0
1116 43 0
-11 -44 0
11 44 0
-1117 -45 0
1117 45 0
-10 -46 0
10 46 0
-1118 -47 0
1118 47 0
-9 -48 0
9 48 0
-1119 -49 0
1119 49 0
-49 -50 0
49 50 0
1120 -51 0
-1120 51 0
1122 -52 0
-1122 52 0
1124 -53 0
-1124 53 0
-1127 -54 0
1127 54 0
1128 -55 0
-1128 55 0
1129 -56 0
-1129 56 0
-1130 -57 0
1130 57 0
1131 -58 0
-1131 58 0
1132 -59 0
-1132 59 0
1133 -60 0
-1133 60 0
1134 -61 0
-1134 61 0
-1135 -62 0
1135 62 0
1136 -63 0
-1136 63 0
1137 -64 0
-1137 64 0
-1138 -65 0
1138 65 0
1139 -66 0
-1139 66 0
1140 -67 0
-1140 67 0
-1141 -68 0
1141 68 0
1142 -69 0
-1142 69 0
1143 -70 0
-1143 70 0
-1144 -71 0
1144 71 0
-8 -72 0
8 72 0
-1145 -73 0
1145 73 0
-7 -74 0
7 74 0
-1146 -75 0
1146 75 0
-6 -76 0
6 76 0
-1147 -77 0
1147 77 0
-5 -78 0
5 78 0
-1148 -79 0
1148 79 0
-79 -80 0
79 80 0
1149 -81 0
-1149 81 0
1151 -82 0
-1151 82 0
1153 -83 0
-1153 83 0
-1156 -84 0
1156 84 0
1157 -85 0
-1157 85 0
1158 -86 0
-1158 86 0
-1159 -87 0
1159 87 0
1160 -88 0
-1160 88 0
1161 -89 0
-1161 89 0
1162 -90 0
-1162 90 0
1163 -91 0
-1163 91 0
-1164 -92 0
1164 92 0
1165 -93 0
-1165 93 0
1166 -94 0
-1166 94 0
-1167 -95 0
1167 95 0
1168 -96 0
-1168 96 0
1169 -97 0
-1169 97 0
-1170 -98 0
1170 98 0
1171 -99 0
-1171 99 0
1172 -100 0
-1172 100 0
-1173 -101 0
1173 101 0
-4 -102 0
4 102 0
-1174 -103 0
1174 103 0
-3 -104 0
3 104 0
-1175 -105 0
1175 105 0
-2 -106 0
2 106 0
-1176 -107 0
1176 107 0
-1 -108 0
1 108 0
-1177 -109 0
1177 109 0
-109 -110 0
109 110 0
1178 -111 0
-1178 111 0
1180 -112 0
-1180 112 0
1182 -113 0
-1182 113 0
-1185 -114 0
1185 114 0
1186 -115 0
-1186 115 0
1187 -116 0
-1187 116 0
-1188 -117 0
1188 117 0
1189 -118 0
-1189 118 0
1190 -119 0
-1190 119 0
1191 -120 0
-1191 120 0
1192 -121 0
-1192 121 0
-1193 -122 0
1193 122 0
1194 -123 0
-1194 123 0
1195 -124 0
-1195 124 0
-1196 -125 0
1196 125 0
1197 -126 0
-1197 126 0
1198 -127 0
-1198 127 0
-1199 -128 0
1199 128 0
1200 -129 0
-1200 129 0
1201 -130 0
-1201 130 0
-1202 -131 0
1202 131 0
-16 -132 0
16 132 0
-1203 -133 0
1203 133 0
-15 -134 0
15 134 0
-1204 -135 0
1204 135 0
-14 -136 0
14 136 0
-1205 -137 0
1205 137 0
-13 -138 0
13 138 0
-1206 -139 0
1206 139 0
-139 -140 0
139 140 0
1207 -141 0
-1207 141 0
1209 -142 0
-1209 142 0
1211 -143 0
-1211 143 0
-1214 -144 0
1214 144 0
1215 -145 0
-1215 145 0
1216 -146 0
-1216 146 0
-1217 -147 0
1217 147 0
1218 -148 0
-1218 148 0
1219 -149 0
-1219 149 0
-144 -150 0
144 150 0
-1220 -151 0
1220 151 0
-54 -152 0
54 152 0
-1221 -153 0
1221 153 0
-84 -154 0
84 154 0
-1222 -155 0
1222 155 0
-114 -156 0
114 156 0
-1223 -157 0
1223 157 0
-157 -158 0
157 158 0
1224 -159 0
-1224 159 0
1226 -160 0
-1226 160 0
1228 -161 0
-1228 161 0
-1231 -162 0
1231 162 0
1232 -163 0
-1232 163 0
1233 -164 0
-1233 164 0
-1234 -165 0
1234 165 0
1235 -166 0
-1235 166 0
1236 -167 0
-1236 167 0
-1237 -211 0
1237 211 0
1165 -214 0
-1165 214 0
1166 -215 0
-1166 215 0
-1238 -216 0
1238 216 0
1168 -217 0
-1168 217 0
1169 -218 0
-1169 218 0
-1239 -219 0
1239 219 0
1171 -220 0
-1171 220 0
1172 -221 0
-1172 221 0
-1240 -222 0
1240 222 0
-4 -223 0
4 223 0
-1241 -224 0
1241 224 0
-3 -225 0
3 225 0
-1242 -226 0
1242 226 0
-2 -227 0
2 227 0
-1243 -228 0
1243 228 0
-1 -229 0
1 229 0
-1244 -230 0
1244 230 0
1186 -231 0
-1186 231 0
1187 -232 0
-1187 232 0
-1245 -233 0
1245 233 0
1136 -234 0
-1136 234 0
1137 -235 0
-1137 235 0
-1246 -236 0
1246 236 0
1139 -237 0
-1139 237 0
1140 -238 0
-1140 238 0
-1247 -239 0
1247 239 0
1142 -240 0
-1142 240 0
1143 -241 0
-1143 241 0
-1248 -242 0
1248 242 0
-8 -243 0
8 243 0
-1249 -244 0
1249 244 0
-7 -245 0
7 245 0
-1250 -246 0
1250 246 0
-6 -247 0
6 247 0
-1251 -248 0
1251 248 0
-5 -249 0
5 249 0
-1252 -250 0
1252 250 0
1157 -251 0
-1157 251 0
1158 -252 0
-1158 252 0
-1253 -253 0
1253 253 0
1107 -254 0
-1107 254 0
1108 -255 0
-1108 255 0
-1254 -256 0
1254 256 0
1110 -257 0
-1110 257 0
1111 -258 0
-1111 258 0
-1255 -259 0
1255 259 0
1113 -260 0
-1113 260 0
1114 -261 0
-1114 261 0
-1256 -262 0
1256 262 0
-12 -263 0
12 263 0
-1257 -264 0
1257 264 0
-11 -265 0
11 265 0
-1258 -266 0
1258 266 0
-10 -267 0
10 267 0
-1259 -268 0
1259 268 0
-9 -269 0
9 269 0
-1260 -270 0
1260 270 0
1128 -271 0
-1128 271 0
1129 -272 0
-1129 272 0
-1261 -273 0
1261 273 0
1194 -274 0
-1194 274 0
1195 -275 0
-1195 275 0
-1262 -276 0
1262 276 0
1197 -277 0
-1197 277 0
1198 -278 0
-1198 278 0
-1263 -279 0
1263 279 0
1200 -280 0
-1200 280 0
1201 -281 0
-1201 281 0
-1264 -282 0
1264 282 0
1267 -283 0
-1267 283 0
1270 -284 0
-1270 284 0
1272 -286 0
-1272 286 0
-1276 -287 0
1276 287 0
-1282 -288 0
1282 288 0
-1288 -289 0
1288 289 0
1291 -290 0
-1291 290 0
1296 -291 0
-1296 291 0
-1300 -292 0
1300 292 0
1305 -293 0
-1305 293 0
1309 -294 0
-1309 294 0
1312 -295 0
-1312 295 0
1315 -296 0
-1315 296 0
1318 -297 0
-1318 297 0
1321 -298 0
-1321 298 0
-1324 -299 0
1324 299 0
-1327 -300 0
1327 300 0
-1330 -301 0
1330 301 0
1334 -302 0
-1334 302 0
1337 -303 0
-1337 303 0
1340 -304 0
-1340 304 0
1343 -305 0
-1343 305 0
1346 -306 0
-1346 306 0
-1349 -307 0
1349 307 0
-1352 -308 0
1352 308 0
-1355 -309 0
1355 309 0
1358 -310 0
-1358 310 0
1361 -311 0
-1361 311 0
1364 -312 0
-1364 312 0
-1370 -313 0
1370 313 0
1373 -314 0
-1373 314 0
1376 -315 0
-1376 315 0
1379 -316 0
-1379 316 0
1382 -317 0
-1382 317 0
1385 -318 0
-1385 318 0
1388 -319 0
-1388 319 0
1391 -320 0
-1391 320 0
1394 -321 0
-1394 321 0
-33 -11 0
-33 27 0
11 -27 33 0
-34 11 0
-34 -27 0
-11 27 34 0
-33 35 0
-34 35 0
-35 33 34 0
-36 -10 0
-36 26 0
10 -26 36 0
-37 10 0
-37 -26 0
-10 26 37 0
-36 38 0
-37 38 0
-38 36 37 0
-39 -9 0
-39 25 0
9 -25 39 0
-40 9 0
-40 -25 0
-9 25 40 0
-39 41 0
-40 41 0
-41 39 40 0
-12 -42 0
12 42 0
-42 43 0
-28 43 0
-43 42 28 0
-11 -44 0
11 44 0
-44 45 0
-27 45 0
-45 44 27 0
-10 -46 0
10 46 0
-46 47 0
-26 47 0
-47 46 26 0
-9 -48 0
9 48 0
-48 49 0
-25 49 0
-49 48 25 0
-49 -50 0
49 50 0
-51 -41 0
-51 -47 0
41 47 51 0
-52 -38 0
-52 -41 0
-52 -45 0
38 41 45 52 0
-53 -35 0
-53 -38 0
-53 -41 0
-53 -43 0
35 38 41 43 53 0
-50 54 0
-51 54 0
-52 54 0
-53 54 0
-54 50 51 52 53 0
-55 -12 0
-55 28 0
12 -28 55 0
-56 12 0
-56 -28 0
-12 28 56 0
-55 57 0
-56 57 0
-57 55 56 0
-58 -57 0
-58 -35 0
-58 -38 0
-58 -41 0
57 35 38 41 58 0
-59 -54 0
-59 -58 0
54 58 59 0
-60 -54 0
-60 59 0
54 -59 60 0
-61 54 0
-61 -59 0
-54 59 61 0
-60 62 0
-61 62 0
-62 60 61 0
-63 -7 0
-63 23 0
7 -23 63 0
-64 7 0
-64 -23 0
-7 23 64 0
-63 65 0
-64 65 0
-65 63 64 0
-66 -6 0
-66 22 0
6 -22 66 0
-67 6 0
-67 -22 0
-6 22 67 0
-66 68 0
-67 68 0
-68 66 67 0
-69 -5 0
-69 21 0
5 -21 69 0
-70 5 0
-70 -21 0
-5 21 70 0
-69 71 0
-70 71 0
-71 69 70 0
-8 -72 0
8 72 0
-72 73 0
-24 73 0
-73 72 24 0
-7 -74 0
7 74 0
-74 75 0
-23 75 0
-75 74 23 0
-6 -76 0
6 76 0
-76 77 0
-22 77 0
-77 76 22 0
-5 -78 0
5 78 0
-78 79 0
-21 79 0
-79 78 21 0
-79 -80 0
79 80 0
-81 -71 0
-81 -77 0
71 77 81 0
-82 -68 0
-82 -71 0
-82 -75 0
68 71 75 82 0
-83 -65 0
-83 -68 0
-83 -71 0
-83 -73 0
65 68 71 73 83 0
-80 84 0
-81 84 0
-82 84 0
-83 84 0
-84 80 81 82 83 0
-85 -8 0
-85 24 0
8 -24 85 0
-86 8 0
-86 -24 0
-8 24 86 0
-85 87 0
-86 87 0
-87 85 86 0
-88 -87 0
-88 -65 0
-88 -68 0
-88 -71 0
87 65 68 71 88 0
-89 -84 0
-89 -88 0
84 88 89 0
-90 -84 0
-90 89 0
84 -89 90 0
-91 84 0
-91 -89 0
-84 89 91 0
-90 92 0
-91 92 0
-92 90 91 0
-93 -3 0
-93 19 0
3 -19 93 0
-94 3 0
-94 -19 0
-3 19 94 0
-93 95 0
-94 95 0
-95 93 94 0
-96 -2 0
-96 18 0
2 -18 96 0
-97 2 0
-97 -18 0
-2 18 97 0
-96 98 0
-97 98 0
-98 96 97 0
-99 -1 0
-99 17 0
1 -17 99 0
-100 1 0
-100 -17 0
-1 17 100 0
-99 101 0
-100 101 0
-101 99 100 0
-4 -102 0
4 102 0
-102 103 0
-20 103 0
-103 102 20 0
-3 -104 0
3 104 0
-104 105 0
-19 105 0
-105 104 19 0
-2 -106 0
2 106 0
-106 107 0
-18 107 0
-107 106 18 0
-1 -108 0
1 108 0
-108 109 0
-17 109 0
-109 108 17 0
-109 -110 0
109 110 0
-111 -101 0
-111 -107 0
101 107 111 0
-112 -98 0
-112 -101 0
-112 -105 0
98 101 105 112 0
-113 -95 0
-113 -98 0
-113 -101 0
-113 -103 0
95 98 101 103 113 0
-110 114 0
-111 114 0
-112 114 0
-113 114 0
-114 110 111 112 113 0
-115 -4 0
-115 20 0
4 -20 115 0
-116 4 0
-116 -20 0
-4 20 116 0
-115 117 0
-116 117 0
-117 115 116 0
-118 -117 0
-118 -95 0
-118 -98 0
-118 -101 0
117 95 98 101 118 0
-119 -114 0
-119 -118 0
114 118 119 0
-120 -114 0
-120 119 0
114 -119 120 0
-121 114 0
-121 -119 0
-114 119 121 0
-120 122 0
-121 122 0
-122 120 121 0
-123 -15 0
-123 31 0
15 -31 123 0
-124 15 0
-124 -31 0
-15 31 124 0
-123 125 0
-124 125 0
-125 123 124 0
-126 -14 0
-126 30 0
14 -30 126 0
-127 14 0
-127 -30 0
-14 30 127 0
-126 128 0
-127 128 0
-128 126 127 0
-129 -13 0
-129 29 0
13 -29 129 0
-130 13 0
-130 -29 0
-13 29 130 0
-129 131 0
-130 131 0
-131 129 130 0
-16 -132 0
16 132 0
-132 133 0
-32 133 0
-133 132 32 0
-15 -134 0
15 134 0
-134 135 0
-31 135 0
-135 134 31 0
-14 -136 0
14 136 0
-136 137 0
-30 137 0
-137 136 30 0
-13 -138 0
13 138 0
-138 139 0
-29 139 0
-139 138 29 0
-139 -140 0
139 140 0
-141 -131 0
-141 -137 0
131 137 141 0
-142 -128 0
-142 -131 0
-142 -135 0
128 131 135 142 0
-143 -125 0
-143 -128 0
-143 -131 0
-143 -133 0
125 128 131 133 143 0
-140 144 0
-141 144 0
-142 144 0
-143 144 0
-144 140 141 142 143 0
-145 -16 0
-145 32 0
16 -32 145 0
-146 16 0
-146 -32 0
-16 32 146 0
-145 147 0
-146 147 0
-147 145 146 0
-148 -147 0
-148 -125 0
-148 -128 0
-148 -131 0
147 125 128 131 148 0
-149 -144 0
-149 -148 0
144 148 149 0
-144 -150 0
144 150 0
-150 151 0
-149 151 0
-151 150 149 0
-54 -152 0
54 152 0
-152 153 0
-59 153 0
-153 152 59 0
-84 -154 0
84 154 0
-154 155 0
-89 155 0
-155 154 89 0
-114 -156 0
114 156 0
-156 157 0
-119 157 0
-157 156 119 0
-157 -158 0
157 158 0
-159 -122 0
-159 -155 0
122 155 159 0
-160 -92 0
-160 -122 0
-160 -153 0
92 122 153 160 0
-161 -62 0
-161 -92 0
-161 -122 0
-161 -151 0
62 92 122 151 161 0
-158 162 0
-159 162 0
-160 162 0
-161 162 0
-162 158 159 160 161 0
-163 -144 0
-163 149 0
144 -149 163 0
-164 144 0
-164 -149 0
-144 149 164 0
-163 165 0
-164 165 0
-165 163 164 0
-166 -165 0
-166 -62 0
-166 -92 0
-166 -122 0
165 62 92 122 166 0
-167 -162 0
-167 -166 0
162 166 167 0
-209 -172 0
-209 173 0
172 -173 209 0
-210 172 0
-210 -173 0
-172 173 210 0
-209 211 0
-210 211 0
-211 209 210 0
-212 -211 0
-212 -169 0
-212 -170 0
-212 -171 0
211 169 170 171 212 0
-213 -168 0
-213 -212 0
168 212 213 0
-214 -3 0
-214 19 0
3 -19 214 0
-215 3 0
-215 -19 0
-3 19 215 0
-214 216 0
-215 216 0
-216 214 215 0
-217 -2 0
-217 18 0
2 -18 217 0
-218 2 0
-218 -18 0
-2 18 218 0
-217 219 0
-218 219 0
-219 217 218 0
-220 -1 0
-220 17 0
1 -17 220 0
-221 1 0
-221 -17 0
-1 17 221 0
-220 222 0
-221 222 0
-222 220 221 0
-4 -223 0
4 223 0
-223 224 0
-20 224 0
-224 223 20 0
-3 -225 0
3 225 0
-225 226 0
-19 226 0
-226 225 19 0
-2 -227 0
2 227 0
-227 228 0
-18 228 0
-228 227 18 0
-1 -229 0
1 229 0
-229 230 0
-17 230 0
-230 229 17 0
-231 -4 0
-231 20 0
4 -20 231 0
-232 4 0
-232 -20 0
-4 20 232 0
-231 233 0
-232 233 0
-233 231 232 0
-234 -7 0
-234 23 0
7 -23 234 0
-235 7 0
-235 -23 0
-7 23 235 0
-234 236 0
-235 236 0
-236 234 235 0
-237 -6 0
-237 22 0
6 -22 237 0
-238 6 0
-238 -22 0
-6 22 238 0
-237 239 0
-238 239 0
-239 237 238 0
-240 -5 0
-240 21 0
5 -21 240 0
-241 5 0
-241 -21 0
-5 21 241 0
-240 242 0
-241 242 0
-242 240 241 0
-8 -243 0
8 243 0
-243 244 0
-24 244 0
-244 243 24 0
-7 -245 0
7 245 0
-245 246 0
-23 246 0
-246 245 23 0
-6 -247 0
6 247 0
-247 248 0
-22 248 0
-248 247 22 0
-5 -249 0
5 249 0
-249 250 0
-21 250 0
-250 249 21 0
-251 -8 0
-251 24 0
8 -24 251 0
-252 8 0
-252 -24 0
-8 24 252 0
-251 253 0
-252 253 0
-253 251 252 0
-254 -11 0
-254 27 0
11 -27 254 0
-255 11 0
-255 -27 0
-11 27 255 0
-254 256 0
-255 256 0
-256 254 255 0
-257 -10 0
-257 26 0
10 -26 257 0
-258 10 0
-258 -26 0
-10 26 258 0
-257 259 0
-258 259 0
-259 257 258 0
-260 -9 0
-260 25 0
9 -25 260 0
-261 9 0
-261 -25 0
-9 25 261 0
-260 262 0
-261 262 0
-262 260 261 0
-12 -263 0
12 263 0
-263 264 0
-28 264 0
-264 263 28 0
-11 -265 0
11 265 0
-265 266 0
-27 266 0
-266 265 27 0
-10 -267 0
10 267 0
-267 268 0
-26 268 0
-268 267 26 0
-9 -269 0
9 269 0
-269 270 0
-25 270 0
-270 269 25 0
-271 -12 0
-271 28 0
12 -28 271 0
-272 12 0
-272 -28 0
-12 28 272 0
-271 273 0
-272 273 0
-273 271 272 0
-274 -15 0
-274 31 0
15 -31 274 0
-275 15 0
-275 -31 0
-15 31 275 0
-274 276 0
-275 276 0
-276 274 275 0
-277 -14 0
-277 30 0
14 -30 277 0
-278 14 0
-278 -30 0
-14 30 278 0
-277 279 0
-278 279 0
-279 277 278 0
-280 -13 0
-280 29 0
13 -29 280 0
-281 13 0
-281 -29 0
-13 29 281 0
-280 282 0
-281 282 0
-282 280 281 0
-283 -167 213 0
-283 167 -213 0
283 -167 -213 0
283 167 213 0
-284 -166 212 0
-284 166 -212 0
284 -166 -212 0
284 166 212 0
-285 -162 168 0
-285 162 -168 0
285 -162 -168 0
285 162 168 0
-283 -284 -285 286 0
-286 283 0
-286 284 0
-286 285 0
-216 -174 -287 0
-216 174 287 0
216 -174 287 0
216 174 -287 0
-219 -175 -288 0
-219 175 288 0
219 -175 288 0
219 175 -288 0
-222 -176 -289 0
-222 176 289 0
222 -176 289 0
222 176 -289 0
-224 -177 -290 0
-224 177 290 0
224 -177 290 0
224 177 -290 0
-226 -178 -291 0
-226 178 291 0
226 -178 291 0
226 178 -291 0
-228 -179 -292 0
-228 179 292 0
228 -179 292 0
228 179 -292 0
-230 -180 -293 0
-230 180 293 0
230 -180 293 0
230 180 -293 0
-233 -181 -294 0
-233 181 294 0
233 -181 294 0
233 181 -294 0
-236 -182 -295 0
-236 182 295 0
236 -182 295 0
236 182 -295 0
-239 -183 -296 0
-239 183 296 0
239 -183 296 0
239 183 -296 0
-242 -184 -297 0
-242 184 297 0
242 -184 297 0
242 184 -297 0
-244 -185 -298 0
-244 185 298 0
244 -185 298 0
244 185 -298 0
-246 -186 -299 0
-246 186 299 0
246 -186 299 0
246 186 -299 0
-248 -187 -300 0
-248 187 300 0
248 -187 300 0
248 187 -300 0
-250 -188 -301 0
-250 188 301 0
250 -188 301 0
250 188 -301 0
-253 -189 -302 0
-253 189 302 0
253 -189 302 0
253 189 -302 0
-256 -190 -303 0
-256 190 303 0
256 -190 303 0
256 190 -303 0
-259 -191 -304 0
-259 191 304 0
259 -191 304 0
259 191 -304 0
-262 -192 -305 0
-262 192 305 0
262 -192 305 0
262 192 -305 0
-264 -193 -306 0
-264 193 306 0
264 -193 306 0
264 193 -306 0
-266 -194 -307 0
-266 194 307 0
266 -194 307 0
266 194 -307 0
-268 -195 -308 0
-268 195 308 0
268 -195 308 0
268 195 -308 0
-270 -196 -309 0
-270 196 309 0
270 -196 309 0
270 196 -309 0
-273 -197 -310 0
-273 197 310 0
273 -197 310 0
273 197 -310 0
-276 -198 -311 0
-276 198 311 0
276 -198 311 0
276 198 -311 0
-279 -199 -312 0
-279 199 312 0
279 -199 312 0
279 199 -312 0
-282 -200 -313 0
-282 200 313 0
282 -200 313 0
282 200 -313 0
-16 -201 -314 0
-16 201 314 0
16 -201 314 0
16 201 -314 0
-32 -202 -315 0
-32 202 315 0
32 -202 315 0
32 202 -315 0
-15 -203 -316 0
-15 203 316 0
15 -203 316 0
15 203 -316 0
-31 -204 -317 0
-31 204 317 0
31 -204 317 0
31 204 -317 0
-14 -205 -318 0
-14 205 318 0
14 -205 318 0
14 205 -318 0
-30 -206 -319 0
-30 206 319 0
30 -206 319 0
30 206 -319 0
-13 -207 -320 0
-13 207 320 0
13 -207 320 0
13 207 -320 0
-29 -208 -321 0
-29 208 321 0
29 -208 321 0
29 208 -321 0
287 288 289 290 291 292 293 294 295 296 297 298 299 300 301 302 303 304 305 306 307 308 309 310 311 312 313 314 315 316 317 318 319 320 321 286 0
-11 -1107 0
27 -1107 0
11 -27 1107 0
11 -1108 0
-27 -1108 0
-11 27 1108 0
-33 -1109 0
-34 -1109 0
33 34 1109 0
-10 -1110 0
26 -1110 0
10 -26 1110 0
10 -1111 0
-26 -1111 0
-10 26 1111 0
-36 -1112 0
-37 -1112 0
36 37 1112 0
-9 -1113 0
25 -1113 0
9 -25 1113 0
9 -1114 0
-25 -1114 0
-9 25 1114 0
-39 -1115 0
-40 -1115 0
39 40 1115 0
-28 -1116 0
-42 -1116 0
28 42 1116 0
-27 -1117 0
-44 -1117 0
27 44 1117 0
-26 -1118 0
-46 -1118 0
26 46 1118 0
-25 -1119 0
-48 -1119 0
25 48 1119 0
-41 -1120 0
-47 -1120 0
41 47 1120 0
-38 -1121 0
-41 -1121 0
38 41 1121 0
-45 -1122 0
1121 -1122 0
45 -1121 1122 0
-35 -1123 0
1121 -1123 0
35 -1121 1123 0
-43 -1124 0
1123 -1124 0
43 -1123 1124 0
-50 -1125 0
-51 -1125 0
50 51 1125 0
-52 -1126 0
-53 -1126 0
52 53 1126 0
1125 -1127 0
1126 -1127 0
-1125 -1126 1127 0
-12 -1128 0
28 -1128 0
12 -28 1128 0
12 -1129 0
-28 -1129 0
-12 28 1129 0
-55 -1130 0
-56 -1130 0
55 56 1130 0
-57 -1131 0
1123 -1131 0
57 -1123 1131 0
-54 -1132 0
-58 -1132 0
54 58 1132 0
-54 -1133 0
59 -1133 0
54 -59 1133 0
54 -1134 0
-59 -1134 0
-54 59 1134 0
-60 -1135 0
-61 -1135 0
60 61 1135 0
-7 -1136 0
23 -1136 0
7 -23 1136 0
7 -1137 0
-23 -1137 0
-7 23 1137 0
-63 -1138 0
-64 -1138 0
63 64 1138 0
-6 -1139 0
22 -1139 0
6 -22 1139 0
6 -1140 0
-22 -1140 0
-6 22 1140 0
-66 -1141 0
-67 -1141 0
66 67 1141 0
-5 -1142 0
21 -1142 0
5 -21 1142 0
5 -1143 0
-21 -1143 0
-5 21 1143 0
-69 -1144 0
-70 -1144 0
69 70 1144 0
-24 -1145 0
-72 -1145 0
24 72 1145 0
-23 -1146 0
-74 -1146 0
23 74 1146 0
-22 -1147 0
-76 -1147 0
22 76 1147 0
-21 -1148 0
-78 -1148 0
21 78 1148 0
-71 -1149 0
-77 -1149 0
71 77 1149 0
-68 -1150 0
-71 -1150 0
68 71 1150 0
-75 -1151 0
1150 -1151 0
75 -1150 1151 0
-65 -1152 0
1150 -1152 0
65 -1150 1152 0
-73 -1153 0
1152 -1153 0
73 -1152 1153 0
-80 -1154 0
-81 -1154 0
80 81 1154 0
-82 -1155 0
-83 -1155 0
82 83 1155 0
1154 -1156 0
1155 -1156 0
-1154 -1155 1156 0
-8 -1157 0
24 -1157 0
8 -24 1157 0
8 -1158 0
-24 -1158 0
-8 24 1158 0
-85 -1159 0
-86 -1159 0
85 86 1159 0
-87 -1160 0
1152 -1160 0
87 -1152 1160 0
-84 -1161 0
-88 -1161 0
84 88 1161 0
-84 -1162 0
89 -1162 0
84 -89 1162 0
84 -1163 0
-89 -1163 0
-84 89 1163 0
-90 -1164 0
-91 -1164 0
90 91 1164 0
-3 -1165 0
19 -1165 0
3 -19 1165 0
3 -1166 0
-19 -1166 0
-3 19 1166 0
-93 -1167 0
-94 -1167 0
93 94 1167 0
-2 -1168 0
18 -1168 0
2 -18 1168 0
2 -1169 0
-18 -1169 0
-2 18 1169 0
-96 -1170 0
-97 -1170 0
96 97 1170 0
-1 -1171 0
17 -1171 0
1 -17 1171 0
1 -1172 0
-17 -1172 0
-1 17 1172 0
-99 -1173 0
-100 -1173 0
99 100 1173 0
-20 -1174 0
-102 -1174 0
20 102 1174 0
-19 -1175 0
-104 -1175 0
19 104 1175 0
-18 -1176 0
-106 -1176 0
18 106 1176 0
-17 -1177 0
-108 -1177 0
17 108 1177 0
-101 -1178 0
-107 -1178 0
101 107 1178 0
-98 -1179 0
-101 -1179 0
98 101 1179 0
-105 -1180 0
1179 -1180 0
105 -1179 1180 0
-95 -1181 0
1179 -1181 0
95 -1179 1181 0
-103 -1182 0
1181 -1182 0
103 -1181 1182 0
-110 -1183 0
-111 -1183 0
110 111 1183 0
-112 -1184 0
-113 -1184 0
112 113 1184 0
1183 -1185 0
1184 -1185 0
-1183 -1184 1185 0
-4 -1186 0
20 -1186 0
4 -20 1186 0
4 -1187 0
-20 -1187 0
-4 20 1187 0
-115 -1188 0
-116 -1188 0
115 116 1188 0
-117 -1189 0
1181 -1189 0
117 -1181 1189 0
-114 -1190 0
-118 -1190 0
114 118 1190 0
-114 -1191 0
119 -1191 0
114 -119 1191 0
114 -1192 0
-119 -1192 0
-114 119 1192 0
-120 -1193 0
-121 -1193 0
120 121 1193 0
-15 -1194 0
31 -1194 0
15 -31 1194 0
15 -1195 0
-31 -1195 0
-15 31 1195 0
-123 -1196 0
-124 -1196 0
123 124 1196 0
-14 -1197 0
30 -1197 0
14 -30 1197 0
14 -1198 0
-30 -1198 0
-14 30 1198 0
-126 -1199 0
-127 -1199 0
126 127 1199 0
-13 -1200 0
29 -1200 0
13 -29 1200 0
13 -1201 0
-29 -1201 0
-13 29 1201 0
-129 -1202 0
-130 -1202 0
129 130 1202 0
-32 -1203 0
-132 -1203 0
32 132 1203 0
-31 -1204 0
-134 -1204 0
31 134 1204 0
-30 -1205 0
-136 -1205 0
30 136 1205 0
-29 -1206 0
-138 -1206 0
29 138 1206 0
-131 -1207 0
-137 -1207 0
131 137 1207 0
-128 -1208 0
-131 -1208 0
128 131 1208 0
-135 -1209 0
1208 -1209 0
135 -1208 1209 0
-125 -1210 0
1208 -1210 0
125 -1208 1210 0
-133 -1211 0
1210 -1211 0
133 -1210 1211 0
-140 -1212 0
-141 -1212 0
140 141 1212 0
-142 -1213 0
-143 -1213 0
142 143 1213 0
1212 -1214 0
1213 -1214 0
-1212 -1213 1214 0
-16 -1215 0
32 -1215 0
16 -32 1215 0
16 -1216 0
-32 -1216 0
-16 32 1216 0
-145 -1217 0
-146 -1217 0
145 146 1217 0
-147 -1218 0
1210 -1218 0
147 -1210 1218 0
-144 -1219 0
-148 -1219 0
144 148 1219 0
-149 -1220 0
-150 -1220 0
149 150 1220 0
-59 -1221 0
-152 -1221 0
59 152 1221 0
-89 -1222 0
-154 -1222 0
89 154 1222 0
-119 -1223 0
-156 -1223 0
119 156 1223 0
-122 -1224 0
-155 -1224 0
122 155 1224 0
-92 -1225 0
-122 -1225 0
92 122 1225 0
-153 -1226 0
1225 -1226 0
153 -1225 1226 0
-62 -1227 0
1225 -1227 0
62 -1225 1227 0
-151 -1228 0
1227 -1228 0
151 -1227 1228 0
-158 -1229 0
-159 -1229 0
158 159 1229 0
-160 -1230 0
-161 -1230 0
160 161 1230 0
1229 -1231 0
1230 -1231 0
-1229 -1230 1231 0
-144 -1232 0
149 -1232 0
144 -149 1232 0
144 -1233 0
-149 -1233 0
-144 149 1233 0
-163 -1234 0
-164 -1234 0
163 164 1234 0
-165 -1235 0
1227 -1235 0
165 -1227 1235 0
-162 -1236 0
-166 -1236 0
162 166 1236 0
-209 -1237 0
-210 -1237 0
209 210 1237 0
-214 -1238 0
-215 -1238 0
214 215 1238 0
-217 -1239 0
-218 -1239 0
217 218 1239 0
-220 -1240 0
-221 -1240 0
220 221 1240 0
-20 -1241 0
-223 -1241 0
20 223 1241 0
-19 -1242 0
-225 -1242 0
19 225 1242 0
-18 -1243 0
-227 -1243 0
18 227 1243 0
-17 -1244 0
-229 -1244 0
17 229 1244 0
-231 -1245 0
-232 -1245 0
231 232 1245 0
-234 -1246 0
-235 -1246 0
234 235 1246 0
-237 -1247 0
-238 -1247 0
237 238 1247 0
-240 -1248 0
-241 -1248 0
240 241 1248 0
-24 -1249 0
-243 -1249 0
24 243 1249 0
-23 -1250 0
-245 -1250 0
23 245 1250 0
-22 -1251 0
-247 -1251 0
22 247 1251 0
-21 -1252 0
-249 -1252 0
21 249 1252 0
-251 -1253 0
-252 -1253 0
251 252 1253 0
-254 -1254 0
-255 -1254 0
254 255 1254 0
-257 -1255 0
-258 -1255 0
257 258 1255 0
-260 -1256 0
-261 -1256 0
260 261 1256 0
-28 -1257 0
-263 -1257 0
28 263 1257 0
-27 -1258 0
-265 -1258 0
27 265 1258 0
-26 -1259 0
-267 -1259 0
26 267 1259 0
-25 -1260 0
-269 -1260 0
25 269 1260 0
-271 -1261 0
-272 -1261 0
271 272 1261 0
-274 -1262 0
-275 -1262 0
274 275 1262 0
-277 -1263 0
-278 -1263 0
277 278 1263 0
-280 -1264 0
-281 -1264 0
280 281 1264 0
167 -1265 0
-213 -1265 0
-167 213 1265 0
-167 -1266 0
213 -1266 0
167 -213 1266 0
-1265 -1267 0
-1266 -1267 0
1265 1266 1267 0
166 -1268 0
-212 -1268 0
-166 212 1268 0
-166 -1269 0
212 -1269 0
166 -212 1269 0
-1268 -1270 0
-1269 -1270 0
1268 1269 1270 0
283 -1271 0
284 -1271 0
-283 -284 1271 0
285 -1272 0
1271 -1272 0
-285 -1271 1272 0
174 -1273 0
-216 -1273 0
-174 216 1273 0
-174 -1274 0
216 -1274 0
174 -216 1274 0
-1238 -1275 0
1274 -1275 0
1238 -1274 1275 0
-1273 -1276 0
-1275 -1276 0
1273 1275 1276 0
-1168 -1277 0
-1169 -1277 0
1168 1169 1277 0
175 -1278 0
1277 -1278 0
-175 -1277 1278 0
-2 -1279 0
-96 -1279 0
2 96 1279 0
-175 -1280 0
-1279 -1280 0
175 1279 1280 0
-1277 -1281 0
1280 -1281 0
1277 -1280 1281 0
-1278 -1282 0
-1281 -1282 0
1278 1281 1282 0
-1171 -1283 0
-1172 -1283 0
1171 1172 1283 0
176 -1284 0
-222 -1284 0
-176 222 1284 0
1283 -1285 0
1284 -1285 0
-1283 -1284 1285 0
-176 -1286 0
222 -1286 0
176 -222 1286 0
-1283 -1287 0
1286 -1287 0
1283 -1286 1287 0
-1285 -1288 0
-1287 -1288 0
1285 1287 1288 0
-177 -1289 0
-224 -1289 0
177 224 1289 0
177 -1290 0
224 -1290 0
-177 -224 1290 0
-1289 -1291 0
-1290 -1291 0
1289 1290 1291 0
-178 -1292 0
226 -1292 0
178 -226 1292 0
-1166 -1293 0
-1292 -1293 0
1166 1292 1293 0
178 -1294 0
-226 -1294 0
-178 226 1294 0
1166 -1295 0
-1294 -1295 0
-1166 1294 1295 0
-1293 -1296 0
-1295 -1296 0
1293 1295 1296 0
-18 -1297 0
179 -1297 0
18 -179 1297 0
-228 -1298 0
1297 -1298 0
228 -1297 1298 0
-179 -1299 0
228 -1299 0
179 -228 1299 0
-1298 -1300 0
-1299 -1300 0
1298 1299 1300 0
-180 -1301 0
230 -1301 0
180 -230 1301 0
-1172 -1302 0
-1301 -1302 0
1172 1301 1302 0
180 -1303 0
-230 -1303 0
-180 230 1303 0
1172 -1304 0
-1303 -1304 0
-1172 1303 1304 0
-1302 -1305 0
-1304 -1305 0
1302 1304 1305 0
-1186 -1306 0
-1187 -1306 0
1186 1187 1306 0
181 -1307 0
-1306 -1307 0
-181 1306 1307 0
-181 -1308 0
1306 -1308 0
181 -1306 1308 0
-1307 -1309 0
-1308 -1309 0
1307 1308 1309 0
-182 -1310 0
-236 -1310 0
182 236 1310 0
182 -1311 0
236 -1311 0
-182 -236 1311 0
-1310 -1312 0
-1311 -1312 0
1310 1311 1312 0
-183 -1313 0
-239 -1313 0
183 239 1313 0
183 -1314 0
239 -1314 0
-183 -239 1314 0
-1313 -1315 0
-1314 -1315 0
1313 1314 1315 0
-184 -1316 0
-242 -1316 0
184 242 1316 0
184 -1317 0
242 -1317 0
-184 -242 1317 0
-1316 -1318 0
-1317 -1318 0
1316 1317 1318 0
-185 -1319 0
-244 -1319 0
185 244 1319 0
185 -1320 0
244 -1320 0
-185 -244 1320 0
-1319 -1321 0
-1320 -1321 0
1319 1320 1321 0
-186 -1322 0
-1137 -1322 0
186 1137 1322 0
186 -1323 0
1137 -1323 0
-186 -1137 1323 0
-1322 -1324 0
-1323 -1324 0
1322 1323 1324 0
-187 -1325 0
-1140 -1325 0
187 1140 1325 0
187 -1326 0
1140 -1326 0
-187 -1140 1326 0
-1325 -1327 0
-1326 -1327 0
1325 1326 1327 0
-188 -1328 0
-1143 -1328 0
188 1143 1328 0
188 -1329 0
1143 -1329 0
-188 -1143 1329 0
-1328 -1330 0
-1329 -1330 0
1328 1329 1330 0
-1157 -1331 0
-1158 -1331 0
1157 1158 1331 0
189 -1332 0
-1331 -1332 0
-189 1331 1332 0
-189 -1333 0
1331 -1333 0
189 -1331 1333 0
-1332 -1334 0
-1333 -1334 0
1332 1333 1334 0
-190 -1335 0
-256 -1335 0
190 256 1335 0
190 -1336 0
256 -1336 0
-190 -256 1336 0
-1335 -1337 0
-1336 -1337 0
1335 1336 1337 0
-191 -1338 0
-259 -1338 0
191 259 1338 0
191 -1339 0
259 -1339 0
-191 -259 1339 0
-1338 -1340 0
-1339 -1340 0
1338 1339 1340 0
-192 -1341 0
-262 -1341 0
192 262 1341 0
192 -1342 0
262 -1342 0
-192 -262 1342 0
-1341 -1343 0
-1342 -1343 0
1341 1342 1343 0
-193 -1344 0
-264 -1344 0
193 264 1344 0
193 -1345 0
264 -1345 0
-193 -264 1345 0
-1344 -1346 0
-1345 -1346 0
1344 1345 1346 0
-194 -1347 0
-1108 -1347 0
194 1108 1347 0
194 -1348 0
1108 -1348 0
-194 -1108 1348 0
-1347 -1349 0
-1348 -1349 0
1347 1348 1349 0
-195 -1350 0
-1111 -1350 0
195 1111 1350 0
195 -1351 0
1111 -1351 0
-195 -1111 1351 0
-1350 -1352 0
-1351 -1352 0
1350 1351 1352 0
-196 -1353 0
-1114 -1353 0
196 1114 1353 0
196 -1354 0
1114 -1354 0
-196 -1114 1354 0
-1353 -1355 0
-1354 -1355 0
1353 1354 1355 0
-197 -1356 0
-273 -1356 0
197 273 1356 0
197 -1357 0
273 -1357 0
-197 -273 1357 0
-1356 -1358 0
-1357 -1358 0
1356 1357 1358 0
-198 -1359 0
-276 -1359 0
198 276 1359 0
198 -1360 0
276 -1360 0
-198 -276 1360 0
-1359 -1361 0
-1360 -1361 0
1359 1360 1361 0
-199 -1362 0
-279 -1362 0
199 279 1362 0
199 -1363 0
279 -1363 0
-199 -279 1363 0
-1362 -1364 0
-1363 -1364 0
1362 1363 1364 0
-1200 -1365 0
-1201 -1365 0
1200 1201 1365 0
200 -1366 0
-282 -1366 0
-200 282 1366 0
1365 -1367 0
1366 -1367 0
-1365 -1366 1367 0
-200 -1368 0
282 -1368 0
200 -282 1368 0
-1365 -1369 0
1368 -1369 0
1365 -1368 1369 0
-1367 -1370 0
-1369 -1370 0
1367 1369 1370 0
-16 -1371 0
-201 -1371 0
16 201 1371 0
16 -1372 0
201 -1372 0
-16 -201 1372 0
-1371 -1373 0
-1372 -1373 0
1371 1372 1373 0
-32 -1374 0
-202 -1374 0
32 202 1374 0
32 -1375 0
202 -1375 0
-32 -202 1375 0
-1374 -1376 0
-1375 -1376 0
1374 1375 1376 0
-15 -1377 0
-203 -1377 0
15 203 1377 0
15 -1378 0
203 -1378 0
-15 -203 1378 0
-1377 -1379 0
-1378 -1379 0
1377 1378 1379 0
-31 -1380 0
-204 -1380 0
31 204 1380 0
31 -1381 0
204 -1381 0
-31 -204 1381 0
-1380 -1382 0
-1381 -1382 0
1380 1381 1382 0
-14 -1383 0
-205 -1383 0
14 205 1383 0
14 -1384 0
205 -1384 0
-14 -205 1384 0
-1383 -1385 0
-1384 -1385 0
1383 1384 1385 0
-30 -1386 0
-206 -1386 0
30 206 1386 0
30 -1387 0
206 -1387 0
-30 -206 1387 0
-1386 -1388 0
-1387 -1388 0
1386 1387 1388 0
-13 -1389 0
-207 -1389 0
13 207 1389 0
13 -1390 0
207 -1390 0
-13 -207 1390 0
-1389 -1391 0
-1390 -1391 0
1389 1390 1391 0
-29 -1392 0
-208 -1392 0
29 208 1392 0
29 -1393 0
208 -1393 0
-29 -208 1393 0
-1392 -1394 0
-1393 -1394 0
1392 1393 1394 0
